Optimizer called with the following parameters:
{'focal_plane_mask': {'field_stop_radius': None,
                      'grayscale': True,
                      'num_pix': 150,
                      'radius': 3.8000000000000003},
 'image': {'bandwidth': 0.15,
           'contrast': 10,
           'iwa': 3.7,
           'num_wavelengths': 5,
           'owa': 14.0,
           'resolution': 2},
 'instrument': {'inst_name': 'USORT'},
 'lyot_stop': {'alignment_tolerance': 0,
               'filename': 'USORT/LS_USORT_circ_ID0000_OD0990_ovsamp16_N0128.fits',
               'num_lyot_stops': 1},
 'method': {'edge_width_for_prior': 2,
            'ending_scale': 1,
            'force_no_hermitian_symmetry': False,
            'force_no_x_mirror_symmetry': False,
            'force_no_y_mirror_symmetry': False,
            'initial_throughput_estimate': 1,
            'maximize_planet_throughput': True,
            'num_throughput_iterations': 2,
            'starting_scale': 1},
 'pupil': {'N': 128,
           'filename': 'USORT/TelAp_USORT_offaxis_ovsamp16_N0128.fits'},
 'solver': {'crossover': 0,
            'method': 2,
            'num_threads': 0}}

File organization:
{'analysis_dir': '/user/bnickson/GitHub/LUVex_TelAps/aplc_optimization/surveys/usort_offaxis_survey_N0128_telserv3/FPM38_IWA37/analysis',
 'drivers_dir': '/user/bnickson/GitHub/LUVex_TelAps/aplc_optimization/surveys/usort_offaxis_survey_N0128_telserv3/FPM38_IWA37/drivers',
 'input_files_dir': '/user/bnickson/GitHub/LUVex_TelAps/aplc_optimization/masks',
 'log_dir': '/user/bnickson/GitHub/LUVex_TelAps/aplc_optimization/surveys/usort_offaxis_survey_N0128_telserv3/FPM38_IWA37/logs',
 'solution_dir': '/user/bnickson/GitHub/LUVex_TelAps/aplc_optimization/surveys/usort_offaxis_survey_N0128_telserv3/FPM38_IWA37/solutions',
 'survey_dir': '/user/bnickson/GitHub/LUVex_TelAps/aplc_optimization/surveys/usort_offaxis_survey_N0128_telserv3/FPM38_IWA37'}

Telescope pupil:
   Mirror symmetry in x: yes
   Mirror symmetry in y: yes

Lyot stop #0:
   Mirror symmetry in x: yes
Lyot stop #0:
   Mirror symmetry in y: yes

Complete APLC:
   Mirror symmetry in x: yes
   Mirror symmetry in y: yes

Starting optimization at scale 1 with 2726 variables and 2875 constraints.
Creating model...
Set parameter Username
Academic license - for non-commercial use only - expires 2024-10-25
Set parameter Crossover to value 0
Set parameter Method to value 2
Calculating and adding constraints...
Wavelength 1/5; Variable 1000/2726
Wavelength 1/5; Variable 2000/2726
Wavelength 2/5; Variable 1000/2726
Wavelength 2/5; Variable 2000/2726
Wavelength 3/5; Variable 1000/2726
Wavelength 3/5; Variable 2000/2726
Wavelength 4/5; Variable 1000/2726
Wavelength 4/5; Variable 2000/2726
Wavelength 5/5; Variable 1000/2726
Wavelength 5/5; Variable 2000/2726
Start optimization...
Gurobi Optimizer version 10.0.3 build v10.0.3rc0 (linux64)

CPU model: Intel(R) Xeon(R) Gold 6146 CPU @ 3.20GHz, instruction set [SSE2|AVX|AVX2|AVX512]
Thread count: 24 physical cores, 48 logical processors, using up to 24 threads

Optimize a model with 5750 rows, 2726 columns and 15674500 nonzeros
Model fingerprint: 0xa8f3e4fa
Coefficient statistics:
  Matrix range     [2e-12, 5e-04]
  Objective range  [2e-03, 1e+00]
  Bounds range     [1e+00, 1e+00]
  RHS range        [1e-05, 1e-05]
Presolve time: 5.17s
Presolved: 2726 rows, 8476 columns, 15677226 nonzeros
Error: invalid user locale; possible fix is to set the system environment
       variable 'LC_ALL' to a valid locale (e.g., to 'C')
Ordering time: 0.04s

Barrier statistics:
 AA' NZ     : 3.714e+06
 Factor NZ  : 3.717e+06 (roughly 34 MB of memory)
 Factor Ops : 6.756e+09 (less than 1 second per iteration)
 Threads    : 24

                  Objective                Residual
Iter       Primal          Dual         Primal    Dual     Compl     Time
   0   5.60500307e+03  0.00000000e+00  0.00e+00 0.00e+00  9.73e-01     7s
   1   3.03804090e+03  6.74800283e+02  0.00e+00 1.60e-01  3.59e-01     7s
   2   1.99591287e+03  1.35896509e+03  0.00e+00 4.68e-02  9.24e-02     8s
   3   1.69454056e+03  1.41302691e+03  0.00e+00 3.27e-02  4.45e-02     8s
   4   1.64490455e+03  1.43613081e+03  0.00e+00 2.45e-02  3.25e-02     8s
   5   1.60901343e+03  1.44111765e+03  0.00e+00 2.25e-02  2.78e-02     8s
   6   1.58946740e+03  1.44168237e+03  0.00e+00 2.16e-02  2.60e-02     9s
   7   1.56463997e+03  1.44450915e+03  0.00e+00 1.97e-02  2.29e-02     9s
   8   1.53109405e+03  1.44588287e+03  0.00e+00 1.86e-02  2.02e-02    10s
   9   1.51036291e+03  1.44614642e+03  0.00e+00 1.76e-02  1.88e-02    10s
  10   1.48780279e+03  1.44521701e+03  0.00e+00 1.60e-02  1.67e-02    10s
  11   1.46806596e+03  1.44187203e+03  0.00e+00 1.50e-02  1.56e-02    10s
  12   1.45342267e+03  1.43988411e+03  0.00e+00 1.41e-02  1.45e-02    11s
  13   1.42270153e+03  1.43222580e+03  0.00e+00 1.18e-02  1.16e-02    11s
  14   1.41626542e+03  1.43052666e+03  0.00e+00 1.15e-02  1.11e-02    11s
  15   1.39938891e+03  1.42738055e+03  0.00e+00 1.09e-02  9.90e-03    12s
  16   1.39144853e+03  1.41939205e+03  0.00e+00 9.92e-03  9.02e-03    12s
  17   1.38295945e+03  1.41260958e+03  0.00e+00 8.90e-03  7.96e-03    12s
  18   1.36298304e+03  1.40812011e+03  0.00e+00 8.30e-03  6.48e-03    13s
  19   1.34709158e+03  1.39718261e+03  0.00e+00 7.06e-03  5.29e-03    13s
  20   1.34066538e+03  1.38885796e+03  0.00e+00 6.28e-03  4.76e-03    13s
  21   1.33413238e+03  1.37550092e+03  0.00e+00 4.96e-03  3.72e-03    14s
  22   1.33192160e+03  1.37368638e+03  0.00e+00 4.80e-03  3.55e-03    14s
  23   1.32814255e+03  1.36748315e+03  0.00e+00 4.25e-03  3.10e-03    15s
  24   1.32344268e+03  1.35515234e+03  0.00e+00 3.27e-03  2.40e-03    15s
  25   1.31958174e+03  1.35068141e+03  0.00e+00 2.95e-03  2.05e-03    15s
  26   1.31721383e+03  1.34550037e+03  0.00e+00 2.57e-03  1.76e-03    16s
  27   1.31637830e+03  1.34421437e+03  0.00e+00 2.47e-03  1.66e-03    16s
  28   1.31443570e+03  1.34160403e+03  0.00e+00 2.27e-03  1.46e-03    17s
  29   1.31355107e+03  1.33712760e+03  0.00e+00 1.95e-03  1.28e-03    17s
  30   1.31303117e+03  1.33638778e+03  0.00e+00 1.90e-03  1.23e-03    17s
  31   1.31166215e+03  1.33198567e+03  0.00e+00 1.59e-03  9.95e-04    18s
  32   1.31116107e+03  1.32728167e+03  0.00e+00 1.25e-03  7.90e-04    18s
  33   1.31065036e+03  1.32581573e+03  0.00e+00 1.16e-03  7.23e-04    18s
  34   1.31049129e+03  1.32500968e+03  0.00e+00 1.10e-03  6.90e-04    19s
  35   1.30980219e+03  1.32262724e+03  0.00e+00 9.47e-04  5.79e-04    19s
  36   1.30921964e+03  1.31838436e+03  0.00e+00 6.72e-04  4.22e-04    20s
  37   1.30894159e+03  1.31735342e+03  0.00e+00 6.10e-04  3.83e-04    20s
  38   1.30857648e+03  1.31639101e+03  0.00e+00 5.52e-04  3.41e-04    20s
  39   1.30826521e+03  1.31541328e+03  0.00e+00 4.95e-04  3.05e-04    21s
  40   1.30810939e+03  1.31384531e+03  0.00e+00 4.04e-04  2.59e-04    21s
  41   1.30786153e+03  1.31262319e+03  0.00e+00 3.33e-04  2.13e-04    21s
  42   1.30746650e+03  1.31135725e+03  0.00e+00 2.58e-04  1.51e-04    22s
  43   1.30731287e+03  1.30981105e+03  0.00e+00 1.65e-04  9.73e-05    22s
  44   1.30719667e+03  1.30972870e+03  5.51e-07 1.60e-04  8.56e-05    23s
  45   1.30715261e+03  1.30918912e+03  3.17e-06 1.29e-04  6.96e-05    23s
  46   1.30710167e+03  1.30855288e+03  1.07e-05 9.22e-05  5.05e-05    23s
  47   1.30705170e+03  1.30807386e+03  1.05e-05 6.45e-05  3.49e-05    24s
  48   1.30702312e+03  1.30776267e+03  1.55e-05 4.65e-05  2.51e-05    24s
  49   1.30700086e+03  1.30737700e+03  9.95e-06 2.40e-05  1.35e-05    25s
  50   1.30697519e+03  1.30720068e+03  1.61e-05 1.38e-05  6.88e-06    26s
  51   1.30696985e+03  1.30710454e+03  2.38e-05 8.27e-06  4.18e-06    26s
  52   1.30696859e+03  1.30708984e+03  3.53e-05 7.43e-06  3.73e-06    27s
  53   1.30696750e+03  1.30708062e+03  6.58e-05 6.91e-06  3.46e-06    28s
  54   1.30696736e+03  1.30707437e+03  6.26e-05 6.55e-06  3.31e-06    28s
  55   1.30696694e+03  1.30707233e+03  5.74e-05 6.44e-06  3.24e-06    29s
  56   1.30696550e+03  1.30703028e+03  6.97e-05 4.05e-06  2.24e-06    29s
  57   1.30696499e+03  1.30702456e+03  6.47e-05 3.73e-06  2.04e-06    30s
  58   1.30696405e+03  1.30701536e+03  6.36e-05 3.21e-06  1.75e-06    30s
  59   1.30696420e+03  1.30701069e+03  1.34e-04 2.94e-06  1.59e-06    31s
  60   1.30696382e+03  1.30700343e+03  1.30e-04 2.52e-06  1.36e-06    31s
  61   1.30696236e+03  1.30698902e+03  1.19e-04 1.70e-06  9.72e-07    32s
  62   1.30696231e+03  1.30698656e+03  9.14e-05 1.56e-06  8.74e-07    33s
  63   1.30696236e+03  1.30698180e+03  1.26e-04 1.29e-06  6.85e-07    33s
  64   1.30696233e+03  1.30698153e+03  1.37e-04 1.28e-06  6.78e-07    34s
  65   1.30696221e+03  1.30697942e+03  1.43e-04 1.16e-06  6.28e-07    34s
  66   1.30696072e+03  1.30697777e+03  1.46e-04 1.07e-06  4.58e-07    35s
  67   1.30696103e+03  1.30697776e+03  1.42e-04 1.07e-06  4.58e-07    36s
  68   1.30696010e+03  1.30697568e+03  1.59e-04 9.49e-07  4.07e-07    36s
  69   1.30696008e+03  1.30697568e+03  1.64e-04 9.49e-07  4.02e-07    37s
  70   1.30695994e+03  1.30697433e+03  1.49e-04 8.73e-07  3.72e-07    37s
  71   1.30695991e+03  1.30697400e+03  1.45e-04 8.55e-07  3.67e-07    38s
  72   1.30695986e+03  1.30697386e+03  1.61e-04 8.47e-07  3.63e-07    38s
  73   1.30695977e+03  1.30697306e+03  1.69e-04 8.02e-07  3.48e-07    39s
  74   1.30695991e+03  1.30697231e+03  1.66e-04 7.60e-07  3.31e-07    39s
  75   1.30695932e+03  1.30696967e+03  1.28e-04 6.11e-07  2.64e-07    40s
  76   1.30695943e+03  1.30696899e+03  1.28e-04 5.72e-07  2.47e-07    41s
  77   1.30695939e+03  1.30696898e+03  1.54e-04 5.72e-07  2.47e-07    41s
  78   1.30695971e+03  1.30696836e+03  1.51e-04 5.37e-07  2.35e-07    42s
  79   1.30695944e+03  1.30696801e+03  1.27e-04 5.18e-07  2.24e-07    42s
  80   1.30695937e+03  1.30696787e+03  1.24e-04 5.10e-07  2.22e-07    43s
  81   1.30695891e+03  1.30696781e+03  1.47e-04 5.06e-07  2.19e-07    43s
  82   1.30695874e+03  1.30696766e+03  1.39e-04 4.98e-07  2.17e-07    44s
  83   1.30695879e+03  1.30696540e+03  1.27e-04 3.69e-07  1.72e-07    45s
  84   1.30695908e+03  1.30696534e+03  1.36e-04 3.66e-07  1.71e-07    45s
  85   1.30695903e+03  1.30696526e+03  1.33e-04 3.62e-07  1.70e-07    46s
  86   1.30695889e+03  1.30696526e+03  1.35e-04 3.62e-07  1.69e-07    46s
  87   1.30695879e+03  1.30696507e+03  1.37e-04 3.51e-07  1.64e-07    47s
  88   1.30695898e+03  1.30696495e+03  1.43e-04 3.45e-07  1.59e-07    47s
  89   1.30695893e+03  1.30696480e+03  1.39e-04 3.36e-07  1.54e-07    48s
  90   1.30695887e+03  1.30696479e+03  1.35e-04 3.36e-07  1.54e-07    49s
  91   1.30695853e+03  1.30696436e+03  1.23e-04 3.11e-07  1.45e-07    49s
  92   1.30695919e+03  1.30696423e+03  1.23e-04 3.04e-07  1.36e-07    50s
  93   1.30695925e+03  1.30696410e+03  1.31e-04 2.97e-07  1.34e-07    50s
  94   1.30695925e+03  1.30696388e+03  1.26e-04 2.85e-07  1.28e-07    51s
  95   1.30695918e+03  1.30696374e+03  1.19e-04 2.77e-07  1.23e-07    51s
  96   1.30695913e+03  1.30696362e+03  1.13e-04 2.70e-07  1.20e-07    52s
  97   1.30695929e+03  1.30696343e+03  1.19e-04 2.59e-07  1.14e-07    53s
  98   1.30695941e+03  1.30696319e+03  1.18e-04 2.46e-07  1.08e-07    53s
  99   1.30695943e+03  1.30696305e+03  9.60e-05 2.38e-07  1.04e-07    54s
 100   1.30695903e+03  1.30696290e+03  1.04e-04 2.29e-07  9.99e-08    54s
 101   1.30695913e+03  1.30696251e+03  1.04e-04 2.08e-07  9.21e-08    55s
 102   1.30695908e+03  1.30696240e+03  9.81e-05 2.01e-07  8.97e-08    55s
 103   1.30695909e+03  1.30696232e+03  1.26e-04 1.97e-07  8.77e-08    56s
 104   1.30695909e+03  1.30696223e+03  1.23e-04 1.92e-07  8.60e-08    57s
 105   1.30695920e+03  1.30696208e+03  1.30e-04 1.84e-07  8.18e-08    57s
 106   1.30695889e+03  1.30696195e+03  1.13e-04 1.76e-07  7.83e-08    58s
 107   1.30695885e+03  1.30696195e+03  1.06e-04 1.76e-07  7.83e-08    58s
 108   1.30695886e+03  1.30696186e+03  1.07e-04 1.71e-07  7.64e-08    59s
 109   1.30695876e+03  1.30696178e+03  1.21e-04 1.66e-07  7.27e-08    60s
 110   1.30695912e+03  1.30696160e+03  1.19e-04 1.57e-07  6.89e-08    61s
 111   1.30695947e+03  1.30696130e+03  1.29e-04 1.40e-07  6.29e-08    61s
 112   1.30695937e+03  1.30696120e+03  1.28e-04 1.34e-07  6.09e-08    62s
 113   1.30695937e+03  1.30696118e+03  1.20e-04 1.33e-07  6.04e-08    62s
 114   1.30695936e+03  1.30696115e+03  1.22e-04 1.31e-07  5.94e-08    63s
 115   1.30695916e+03  1.30696114e+03  1.36e-04 1.31e-07  5.92e-08    63s
 116   1.30695904e+03  1.30696102e+03  1.16e-04 1.24e-07  5.57e-08    64s
 117   1.30695902e+03  1.30696097e+03  1.09e-04 1.21e-07  5.43e-08    64s
 118   1.30695912e+03  1.30696097e+03  1.09e-04 1.21e-07  5.43e-08    65s
 119   1.30695916e+03  1.30696091e+03  1.13e-04 1.18e-07  5.15e-08    66s
 120   1.30696031e+03  1.30696079e+03  1.48e-04 1.11e-07  4.79e-08    66s
 121   1.30696052e+03  1.30696076e+03  1.80e-04 1.09e-07  4.67e-08    67s
 122   1.30695994e+03  1.30696044e+03  1.66e-04 9.11e-08  3.97e-08    68s
 123   1.30695965e+03  1.30696043e+03  1.56e-04 9.09e-08  3.93e-08    68s
 124   1.30695954e+03  1.30696030e+03  1.46e-04 8.32e-08  3.67e-08    69s
 125   1.30695935e+03  1.30696023e+03  1.42e-04 7.97e-08  3.53e-08    70s
 126   1.30695934e+03  1.30696013e+03  1.40e-04 7.40e-08  3.34e-08    70s
 127   1.30695921e+03  1.30696006e+03  1.27e-04 7.01e-08  3.17e-08    71s
 128   1.30695916e+03  1.30696003e+03  1.27e-04 6.82e-08  3.03e-08    72s
 129   1.30695934e+03  1.30695984e+03  1.49e-04 5.72e-08  2.52e-08    73s
 130   1.30695901e+03  1.30695982e+03  1.30e-04 5.65e-08  2.49e-08    73s
 131   1.30695894e+03  1.30695981e+03  1.18e-04 5.59e-08  2.46e-08    74s
 132   1.30695873e+03  1.30695981e+03  1.21e-04 5.58e-08  2.45e-08    74s
 133   1.30695806e+03  1.30695974e+03  1.21e-04 5.20e-08  2.23e-08    75s
 134   1.30695817e+03  1.30695973e+03  1.82e-04 5.12e-08  2.17e-08    76s
 135   1.30695817e+03  1.30695972e+03  1.78e-04 5.06e-08  2.16e-08    76s
 136   1.30695816e+03  1.30695971e+03  1.75e-04 5.01e-08  2.14e-08    77s
 137   1.30695806e+03  1.30695971e+03  1.76e-04 5.00e-08  2.14e-08    77s
 138   1.30695814e+03  1.30695970e+03  1.75e-04 4.94e-08  2.12e-08    78s
 139   1.30695812e+03  1.30695970e+03  1.75e-04 4.94e-08  2.12e-08    79s
 140   1.30695850e+03  1.30695968e+03  1.77e-04 4.85e-08  2.07e-08    79s
 141   1.30695845e+03  1.30695967e+03  1.77e-04 4.79e-08  2.04e-08    80s
 142   1.30695849e+03  1.30695966e+03  1.76e-04 4.75e-08  2.02e-08    80s
 143   1.30695923e+03  1.30695957e+03  1.61e-04 4.22e-08  1.76e-08    81s
 144   1.30695959e+03  1.30695948e+03  1.45e-04 3.75e-08  1.57e-08    82s
 145   1.30695973e+03  1.30695948e+03  1.38e-04 3.72e-08  1.56e-08    83s
 146   1.30695966e+03  1.30695948e+03  1.41e-04 3.71e-08  1.55e-08    83s
 147   1.30695965e+03  1.30695942e+03  1.41e-04 3.38e-08  1.46e-08    84s
 148   1.30695955e+03  1.30695938e+03  1.37e-04 3.16e-08  1.38e-08    84s
 149   1.30695955e+03  1.30695938e+03  1.38e-04 3.16e-08  1.38e-08    85s
 150   1.30695951e+03  1.30695938e+03  1.36e-04 3.16e-08  1.38e-08    85s
 151   1.30695948e+03  1.30695928e+03  1.89e-04 2.64e-08  1.18e-08    87s
 152   1.30695944e+03  1.30695927e+03  1.97e-04 2.59e-08  1.16e-08    88s
 153   1.30695927e+03  1.30695926e+03  1.57e-04 2.51e-08  1.12e-08    89s
 154   1.30695889e+03  1.30695925e+03  1.33e-04 2.48e-08  1.08e-08    90s
 155   1.30695872e+03  1.30695925e+03  1.62e-04 2.47e-08  1.08e-08    90s
 156   1.30695873e+03  1.30695925e+03  1.64e-04 2.47e-08  1.08e-08    91s
 157   1.30695867e+03  1.30695925e+03  1.65e-04 2.47e-08  1.08e-08    92s
 158   1.30695917e+03  1.30695919e+03  1.63e-04 2.11e-08  9.75e-09    93s
 159   1.30695959e+03  1.30695917e+03  1.58e-04 2.03e-08  9.38e-09    94s
 160   1.30695958e+03  1.30695917e+03  1.55e-04 2.03e-08  9.38e-09    94s
 161   1.30695969e+03  1.30695911e+03  1.51e-04 1.70e-08  8.28e-09    95s
 162   1.30695969e+03  1.30695911e+03  1.52e-04 1.69e-08  8.27e-09    96s
 163   1.30695931e+03  1.30695911e+03  1.14e-04 1.67e-08  8.13e-09    96s
 164   1.30695934e+03  1.30695909e+03  1.22e-04 1.61e-08  7.63e-09    97s
 165   1.30695918e+03  1.30695906e+03  1.12e-04 1.40e-08  6.53e-09    99s
 166   1.30695919e+03  1.30695906e+03  1.11e-04 1.40e-08  6.53e-09    99s
 167   1.30695987e+03  1.30695906e+03  1.16e-04 1.40e-08  6.51e-09   100s
 168   1.30695997e+03  1.30695905e+03  1.29e-04 1.31e-08  6.06e-09   100s
 169   1.30696064e+03  1.30695897e+03  1.11e-04 8.87e-09  4.55e-09   101s
 170   1.30696063e+03  1.30695897e+03  1.11e-04 8.82e-09  4.53e-09   102s
 171   1.30696045e+03  1.30695896e+03  1.08e-04 8.62e-09  4.31e-09   103s
 172   1.30696012e+03  1.30695895e+03  1.15e-04 7.79e-09  3.94e-09   103s
 173   1.30696051e+03  1.30695893e+03  1.08e-04 6.87e-09  3.34e-09   104s
 174   1.30696002e+03  1.30695893e+03  1.09e-04 6.80e-09  3.23e-09   105s
 175   1.30696003e+03  1.30695893e+03  1.08e-04 6.77e-09  3.23e-09   106s
 176   1.30695994e+03  1.30695893e+03  1.01e-04 6.76e-09  3.22e-09   106s
 177   1.30695989e+03  1.30695889e+03  9.57e-05 4.63e-09  2.50e-09   108s
 178   1.30696008e+03  1.30695888e+03  9.74e-05 4.37e-09  2.40e-09   109s
 179   1.30696002e+03  1.30695888e+03  1.03e-04 4.22e-09  2.31e-09   110s
 180   1.30695979e+03  1.30695887e+03  9.64e-05 3.78e-09  2.15e-09   111s
 181   1.30695958e+03  1.30695887e+03  9.60e-05 3.70e-09  2.06e-09   112s
 182   1.30696006e+03  1.30695887e+03  9.11e-05 3.40e-09  1.92e-09   113s
 183   1.30696086e+03  1.30695886e+03  1.18e-04 3.02e-09  1.81e-09   114s
 184   1.30696091e+03  1.30695886e+03  1.09e-04 2.84e-09  1.63e-09   115s
 185   1.30696078e+03  1.30695885e+03  1.78e-04 2.68e-09  1.54e-09   116s
 186   1.30696072e+03  1.30695885e+03  1.74e-04 2.62e-09  1.51e-09   116s
 187   1.30696064e+03  1.30695885e+03  1.58e-04 2.50e-09  1.45e-09   117s
 188   1.30696058e+03  1.30695885e+03  1.55e-04 2.40e-09  1.40e-09   117s
 189   1.30696066e+03  1.30695885e+03  1.54e-04 2.40e-09  1.41e-09   118s
 190   1.30696060e+03  1.30695885e+03  1.57e-04 2.33e-09  1.39e-09   118s
 191   1.30696064e+03  1.30695885e+03  1.59e-04 2.30e-09  1.34e-09   119s
 192   1.30696060e+03  1.30695885e+03  1.63e-04 2.28e-09  1.33e-09   119s
 193   1.30696034e+03  1.30695885e+03  1.45e-04 2.28e-09  1.33e-09   120s
 194   1.30696034e+03  1.30695885e+03  1.44e-04 2.28e-09  1.33e-09   121s
 195   1.30696024e+03  1.30695884e+03  1.34e-04 1.95e-09  1.22e-09   122s
 196   1.30696024e+03  1.30695884e+03  1.34e-04 1.95e-09  1.22e-09   122s
 197   1.30696080e+03  1.30695884e+03  2.02e-04 1.91e-09  1.09e-09   123s
 198   1.30696080e+03  1.30695884e+03  2.01e-04 1.86e-09  1.09e-09   124s
 199   1.30696082e+03  1.30695884e+03  1.98e-04 1.80e-09  1.07e-09   125s
 200   1.30696092e+03  1.30695884e+03  1.98e-04 1.80e-09  1.08e-09   125s
 201   1.30696103e+03  1.30695884e+03  2.10e-04 1.80e-09  1.08e-09   126s
 202   1.30696064e+03  1.30695884e+03  1.69e-04 1.67e-09  1.04e-09   127s
 203   1.30695991e+03  1.30695884e+03  2.00e-04 1.58e-09  9.70e-10   127s
 204   1.30695956e+03  1.30695884e+03  1.98e-04 1.57e-09  9.32e-10   128s
 205   1.30696172e+03  1.30695883e+03  1.89e-04 1.52e-09  7.62e-10   129s
 206   1.30696172e+03  1.30695883e+03  1.88e-04 1.50e-09  7.62e-10   130s
 207   1.30696077e+03  1.30695883e+03  2.10e-04 1.50e-09  7.64e-10   130s
 208   1.30696026e+03  1.30695883e+03  2.20e-04 1.29e-09  6.82e-10   131s
 209   1.30695922e+03  1.30695883e+03  1.77e-04 1.26e-09  6.85e-10   132s
 210   1.30695922e+03  1.30695883e+03  1.77e-04 1.26e-09  6.85e-10   133s
 211   1.30695919e+03  1.30695883e+03  1.60e-04 1.22e-09  6.44e-10   133s
 212   1.30695872e+03  1.30695883e+03  1.47e-04 1.11e-09  5.56e-10   134s
 213   1.30695873e+03  1.30695883e+03  1.47e-04 1.11e-09  5.56e-10   134s
 214   1.30695891e+03  1.30695883e+03  1.54e-04 1.10e-09  5.41e-10   135s
 215   1.30695898e+03  1.30695883e+03  1.64e-04 1.03e-09  5.07e-10   135s
 216   1.30695966e+03  1.30695882e+03  1.40e-04 8.56e-10  4.12e-10   136s
 217   1.30695961e+03  1.30695882e+03  1.30e-04 8.20e-10  3.97e-10   137s
 218   1.30695963e+03  1.30695882e+03  1.31e-04 8.12e-10  3.83e-10   137s
 219   1.30696011e+03  1.30695882e+03  1.18e-04 7.68e-10  3.50e-10   138s
 220   1.30696017e+03  1.30695882e+03  1.09e-04 7.23e-10  3.24e-10   138s
 221   1.30695978e+03  1.30695882e+03  1.38e-04 7.16e-10  3.15e-10   139s
 222   1.30695976e+03  1.30695882e+03  1.43e-04 7.06e-10  3.11e-10   139s
 223   1.30695977e+03  1.30695882e+03  1.34e-04 7.02e-10  3.07e-10   140s
 224   1.30695973e+03  1.30695882e+03  1.32e-04 6.21e-10  2.82e-10   140s
 225   1.30695970e+03  1.30695882e+03  1.33e-04 5.36e-10  2.69e-10   141s
 226   1.30695967e+03  1.30695882e+03  1.24e-04 5.29e-10  2.60e-10   141s
 227   1.30695943e+03  1.30695882e+03  1.32e-04 5.24e-10  2.57e-10   142s
 228   1.30695959e+03  1.30695881e+03  1.15e-04 4.03e-10  2.18e-10   143s
 229   1.30695963e+03  1.30695881e+03  1.23e-04 4.01e-10  2.13e-10   143s
 230   1.30695959e+03  1.30695881e+03  1.17e-04 3.74e-10  1.99e-10   144s
 231   1.30695915e+03  1.30695881e+03  9.57e-05 3.41e-10  1.82e-10   144s
 232   1.30695911e+03  1.30695881e+03  1.24e-04 3.30e-10  1.70e-10   145s
 233   1.30695877e+03  1.30695881e+03  1.16e-04 3.06e-10  1.59e-10   146s
 234   1.30695877e+03  1.30695881e+03  1.16e-04 2.99e-10  1.58e-10   146s
 235   1.30695900e+03  1.30695881e+03  1.03e-04 2.81e-10  1.49e-10   147s
 236   1.30695874e+03  1.30695881e+03  1.33e-04 2.46e-10  1.44e-10   147s
 237   1.30695863e+03  1.30695881e+03  1.25e-04 2.34e-10  1.36e-10   148s
 238   1.30695795e+03  1.30695881e+03  1.20e-04 2.26e-10  1.41e-10   148s
 239   1.30695797e+03  1.30695881e+03  1.19e-04 2.17e-10  1.30e-10   149s
 240   1.30695796e+03  1.30695881e+03  1.18e-04 2.13e-10  1.28e-10   149s
 241   1.30695805e+03  1.30695881e+03  1.50e-04 2.03e-10  1.19e-10   150s
 242   1.30695802e+03  1.30695881e+03  1.58e-04 1.92e-10  1.19e-10   150s
 243   1.30695740e+03  1.30695881e+03  1.19e-04 1.40e-10  8.58e-11   151s
 244   1.30695740e+03  1.30695881e+03  1.17e-04 1.37e-10  8.44e-11   152s
 245   1.30695742e+03  1.30695881e+03  1.14e-04 1.34e-10  8.25e-11   152s
 246   1.30695772e+03  1.30695881e+03  9.98e-05 1.19e-10  8.38e-11   153s
 247   1.30695752e+03  1.30695881e+03  9.67e-05 1.06e-10  7.32e-11   153s
 248   1.30695786e+03  1.30695881e+03  1.12e-04 1.06e-10  7.14e-11   154s

Barrier performed 248 iterations in 153.63 seconds (167.71 work units)
Sub-optimal termination - objective 1.30696859e+03

Optimization finished!
Restarting optimization for throughput iteration 1...
Gurobi Optimizer version 10.0.3 build v10.0.3rc0 (linux64)

CPU model: Intel(R) Xeon(R) Gold 6146 CPU @ 3.20GHz, instruction set [SSE2|AVX|AVX2|AVX512]
Thread count: 24 physical cores, 48 logical processors, using up to 24 threads

Optimize a model with 5750 rows, 2726 columns and 15674500 nonzeros
Model fingerprint: 0x33f5fe46
Coefficient statistics:
  Matrix range     [2e-12, 5e-04]
  Objective range  [2e-03, 1e+00]
  Bounds range     [1e+00, 1e+00]
  RHS range        [6e-06, 6e-06]
Presolve time: 5.26s
Presolved: 2726 rows, 8476 columns, 15677226 nonzeros
Ordering time: 0.04s

Barrier statistics:
 AA' NZ     : 3.714e+06
 Factor NZ  : 3.717e+06 (roughly 34 MB of memory)
 Factor Ops : 6.756e+09 (less than 1 second per iteration)
 Threads    : 24

                  Objective                Residual
Iter       Primal          Dual         Primal    Dual     Compl     Time
   0   5.54252820e+03  0.00000000e+00  0.00e+00 0.00e+00  9.66e-01     7s
   1   2.98208228e+03  6.77535453e+02  0.00e+00 1.57e-01  3.53e-01     7s
   2   1.94632837e+03  1.31545873e+03  0.00e+00 5.29e-02  9.98e-02     8s
   3   1.69815134e+03  1.37133147e+03  0.00e+00 3.99e-02  5.89e-02     8s
   4   1.64592516e+03  1.39918845e+03  0.00e+00 3.16e-02  4.63e-02     8s
   5   1.59634807e+03  1.40140211e+03  0.00e+00 3.00e-02  4.19e-02     9s
   6   1.55239621e+03  1.40891373e+03  0.00e+00 2.66e-02  3.62e-02     9s
   7   1.50731069e+03  1.41265138e+03  0.00e+00 2.25e-02  3.06e-02     9s
   8   1.48282205e+03  1.41031149e+03  0.00e+00 2.20e-02  2.93e-02    10s
   9   1.42637377e+03  1.40806842e+03  0.00e+00 2.07e-02  2.67e-02    10s
  10   1.39644589e+03  1.40112489e+03  0.00e+00 1.89e-02  2.42e-02    10s
  11   1.38268808e+03  1.39203742e+03  0.00e+00 1.73e-02  2.24e-02    11s
  12   1.34737961e+03  1.38622513e+03  0.00e+00 1.64e-02  2.05e-02    11s
  13   1.29911964e+03  1.36389100e+03  0.00e+00 1.41e-02  1.73e-02    11s
  14   1.27110660e+03  1.35687365e+03  0.00e+00 1.35e-02  1.57e-02    12s
  15   1.25399493e+03  1.34518031e+03  0.00e+00 1.26e-02  1.46e-02    12s
  16   1.23800199e+03  1.31824532e+03  0.00e+00 1.07e-02  1.29e-02    12s
  17   1.22773941e+03  1.31183151e+03  0.00e+00 1.03e-02  1.21e-02    13s
  18   1.21754871e+03  1.30836194e+03  0.00e+00 1.00e-02  1.14e-02    13s
  19   1.21089616e+03  1.30255108e+03  0.00e+00 9.62e-03  1.08e-02    13s
  20   1.20725881e+03  1.29727418e+03  0.00e+00 9.25e-03  1.03e-02    13s
  21   1.19407880e+03  1.27743478e+03  0.00e+00 7.97e-03  8.73e-03    14s
  22   1.18787323e+03  1.26992214e+03  0.00e+00 7.46e-03  8.03e-03    14s
  23   1.17951406e+03  1.25127802e+03  0.00e+00 6.38e-03  6.99e-03    14s
  24   1.16746247e+03  1.24268572e+03  0.00e+00 5.87e-03  6.04e-03    15s
  25   1.15990156e+03  1.22575208e+03  0.00e+00 4.99e-03  5.11e-03    15s
  26   1.15275281e+03  1.21680801e+03  0.00e+00 4.47e-03  4.44e-03    15s
  27   1.14595943e+03  1.20180404e+03  0.00e+00 3.73e-03  3.61e-03    16s
  28   1.14407505e+03  1.19852015e+03  0.00e+00 3.56e-03  3.39e-03    16s
  29   1.14072186e+03  1.18910670e+03  0.00e+00 3.08e-03  2.90e-03    16s
  30   1.13882397e+03  1.18564767e+03  0.00e+00 2.90e-03  2.68e-03    17s
  31   1.13284802e+03  1.17038594e+03  0.00e+00 2.15e-03  1.78e-03    17s
  32   1.13049720e+03  1.16016832e+03  0.00e+00 1.67e-03  1.37e-03    18s
  33   1.12858800e+03  1.15807992e+03  0.00e+00 1.58e-03  1.24e-03    18s
  34   1.12781799e+03  1.15382183e+03  0.00e+00 1.39e-03  1.11e-03    18s
  35   1.12729332e+03  1.15281356e+03  0.00e+00 1.34e-03  1.06e-03    19s
  36   1.12582931e+03  1.14946993e+03  0.00e+00 1.20e-03  9.19e-04    19s
  37   1.12467766e+03  1.14774922e+03  0.00e+00 1.12e-03  8.51e-04    20s
  38   1.12426666e+03  1.14580041e+03  0.00e+00 1.06e-03  8.35e-04    20s
  39   1.12380998e+03  1.14309737e+03  0.00e+00 9.45e-04  7.69e-04    20s
  40   1.12341240e+03  1.14242272e+03  0.00e+00 9.18e-04  7.41e-04    21s
  41   1.12278618e+03  1.14201183e+03  0.00e+00 9.01e-04  7.05e-04    21s
  42   1.12197956e+03  1.14104360e+03  0.00e+00 8.64e-04  6.50e-04    21s
  43   1.12147618e+03  1.13905505e+03  0.00e+00 7.87e-04  5.87e-04    22s
  44   1.12130945e+03  1.13780291e+03  0.00e+00 7.39e-04  5.55e-04    22s
  45   1.12115302e+03  1.13726959e+03  0.00e+00 7.18e-04  5.36e-04    22s
  46   1.12085052e+03  1.13437950e+03  0.00e+00 6.09e-04  4.72e-04    23s
  47   1.12082435e+03  1.13409942e+03  0.00e+00 5.98e-04  4.67e-04    23s
  48   1.12066054e+03  1.13335204e+03  0.00e+00 5.70e-04  4.45e-04    24s
  49   1.12030942e+03  1.13098418e+03  0.00e+00 4.81e-04  3.86e-04    24s
  50   1.12012305e+03  1.12978121e+03  0.00e+00 4.36e-04  3.56e-04    24s
  51   1.11973126e+03  1.12902610e+03  0.00e+00 4.10e-04  3.22e-04    25s
  52   1.11938453e+03  1.12743345e+03  0.00e+00 3.51e-04  2.74e-04    25s
  53   1.11929334e+03  1.12734602e+03  0.00e+00 3.48e-04  2.67e-04    26s
  54   1.11905868e+03  1.12655665e+03  0.00e+00 3.19e-04  2.41e-04    26s
  55   1.11888265e+03  1.12615670e+03  0.00e+00 3.04e-04  2.21e-04    26s
  56   1.11867274e+03  1.12409817e+03  0.00e+00 2.30e-04  1.78e-04    27s
  57   1.11848476e+03  1.12249252e+03  0.00e+00 1.72e-04  1.41e-04    27s
  58   1.11830699e+03  1.12178143e+03  0.00e+00 1.47e-04  1.20e-04    27s
  59   1.11819436e+03  1.12121323e+03  0.00e+00 1.28e-04  1.04e-04    28s
  60   1.11814218e+03  1.12058879e+03  0.00e+00 1.06e-04  9.17e-05    28s
  61   1.11800791e+03  1.11986981e+03  0.00e+00 8.08e-05  7.19e-05    28s
  62   1.11786730e+03  1.11940169e+03  0.00e+00 6.43e-05  5.34e-05    29s
  63   1.11774312e+03  1.11897815e+03  3.61e-06 4.98e-05  3.77e-05    29s
  64   1.11770247e+03  1.11877227e+03  2.71e-06 4.27e-05  3.14e-05    30s
  65   1.11764035e+03  1.11861273e+03  8.31e-07 3.71e-05  2.39e-05    30s
  66   1.11761066e+03  1.11819949e+03  1.71e-06 2.28e-05  1.55e-05    31s
  67   1.11758720e+03  1.11786011e+03  1.82e-06 1.09e-05  8.27e-06    32s
  68   1.11758581e+03  1.11782244e+03  4.61e-06 9.62e-06  7.58e-06    33s
  69   1.11758522e+03  1.11781372e+03  1.34e-05 9.31e-06  7.39e-06    33s
  70   1.11757764e+03  1.11777960e+03  1.98e-05 8.13e-06  6.23e-06    34s
  71   1.11757449e+03  1.11773645e+03  2.81e-05 6.61e-06  5.28e-06    34s
  72   1.11757354e+03  1.11772154e+03  3.09e-05 6.09e-06  4.98e-06    35s
  73   1.11756986e+03  1.11768654e+03  2.81e-05 4.87e-06  4.13e-06    35s
  74   1.11756934e+03  1.11767424e+03  4.02e-05 4.44e-06  3.90e-06    36s
  75   1.11756909e+03  1.11767164e+03  4.58e-05 4.35e-06  3.82e-06    37s
  76   1.11756606e+03  1.11766956e+03  5.05e-05 4.28e-06  3.50e-06    37s
  77   1.11756552e+03  1.11764792e+03  4.60e-05 3.52e-06  3.13e-06    38s
  78   1.11756467e+03  1.11764188e+03  4.48e-05 3.31e-06  2.98e-06    38s
  79   1.11756434e+03  1.11764098e+03  4.76e-05 3.28e-06  2.96e-06    39s
  80   1.11756102e+03  1.11763152e+03  8.86e-05 2.95e-06  2.51e-06    39s
  81   1.11756089e+03  1.11763063e+03  8.73e-05 2.92e-06  2.15e-06    40s
  82   1.11756070e+03  1.11762742e+03  9.40e-05 2.81e-06  2.09e-06    40s
  83   1.11755939e+03  1.11762207e+03  1.33e-04 2.62e-06  1.98e-06    41s
  84   1.11755919e+03  1.11762059e+03  1.41e-04 2.57e-06  1.94e-06    42s
  85   1.11755920e+03  1.11762004e+03  1.49e-04 2.55e-06  1.93e-06    42s
  86   1.11755937e+03  1.11762005e+03  1.96e-04 2.55e-06  1.93e-06    43s
  87   1.11755920e+03  1.11761065e+03  2.07e-04 2.22e-06  1.70e-06    44s
  88   1.11755934e+03  1.11761060e+03  2.10e-04 2.22e-06  1.70e-06    44s
  89   1.11755926e+03  1.11760571e+03  2.73e-04 2.05e-06  1.61e-06    45s
  90   1.11755914e+03  1.11760571e+03  2.72e-04 2.05e-06  1.61e-06    46s
  91   1.11755894e+03  1.11760489e+03  2.91e-04 2.02e-06  1.55e-06    46s
  92   1.11755842e+03  1.11760488e+03  2.88e-04 2.02e-06  1.55e-06    47s
  93   1.11755759e+03  1.11760417e+03  2.69e-04 2.00e-06  1.51e-06    48s
  94   1.11755725e+03  1.11760402e+03  2.86e-04 1.99e-06  1.50e-06    48s
  95   1.11755757e+03  1.11760275e+03  2.73e-04 1.95e-06  1.47e-06    49s
  96   1.11755752e+03  1.11760228e+03  2.61e-04 1.93e-06  1.45e-06    49s
  97   1.11755726e+03  1.11760094e+03  2.55e-04 1.89e-06  1.42e-06    50s
  98   1.11755730e+03  1.11760075e+03  2.54e-04 1.88e-06  1.41e-06    50s
  99   1.11755652e+03  1.11759977e+03  2.21e-04 1.84e-06  1.37e-06    51s
 100   1.11755649e+03  1.11759833e+03  2.18e-04 1.80e-06  1.34e-06    51s
 101   1.11755650e+03  1.11759821e+03  2.18e-04 1.79e-06  1.34e-06    52s
 102   1.11755679e+03  1.11759809e+03  2.26e-04 1.79e-06  1.33e-06    52s
 103   1.11755633e+03  1.11759706e+03  2.19e-04 1.75e-06  1.30e-06    53s
 104   1.11755631e+03  1.11759614e+03  2.55e-04 1.72e-06  1.28e-06    54s
 105   1.11755613e+03  1.11759415e+03  2.56e-04 1.65e-06  1.24e-06    55s
 106   1.11755634e+03  1.11759415e+03  2.62e-04 1.65e-06  1.24e-06    55s
 107   1.11755601e+03  1.11759342e+03  2.70e-04 1.62e-06  1.22e-06    56s
 108   1.11755512e+03  1.11759277e+03  2.19e-04 1.60e-06  1.19e-06    57s
 109   1.11755523e+03  1.11759275e+03  2.24e-04 1.60e-06  1.19e-06    57s
 110   1.11755499e+03  1.11759275e+03  2.11e-04 1.60e-06  1.19e-06    58s
 111   1.11755490e+03  1.11759059e+03  2.16e-04 1.53e-06  1.14e-06    59s
 112   1.11755474e+03  1.11759030e+03  2.10e-04 1.52e-06  1.13e-06    60s
 113   1.11755487e+03  1.11758904e+03  2.18e-04 1.47e-06  1.11e-06    60s
 114   1.11755485e+03  1.11758891e+03  2.22e-04 1.47e-06  1.11e-06    61s
 115   1.11755498e+03  1.11758842e+03  2.03e-04 1.45e-06  1.10e-06    62s
 116   1.11755515e+03  1.11758735e+03  1.93e-04 1.41e-06  1.08e-06    62s
 117   1.11755496e+03  1.11758682e+03  1.94e-04 1.39e-06  1.07e-06    63s
 118   1.11755469e+03  1.11758641e+03  2.05e-04 1.38e-06  1.06e-06    63s
 119   1.11755464e+03  1.11758623e+03  2.07e-04 1.37e-06  1.05e-06    64s
 120   1.11755476e+03  1.11758616e+03  2.05e-04 1.37e-06  1.05e-06    65s
 121   1.11755379e+03  1.11758523e+03  2.19e-04 1.34e-06  9.94e-07    65s
 122   1.11755363e+03  1.11758458e+03  2.20e-04 1.32e-06  9.81e-07    66s
 123   1.11755384e+03  1.11758457e+03  2.33e-04 1.32e-06  9.79e-07    66s
 124   1.11755350e+03  1.11758453e+03  2.32e-04 1.31e-06  9.78e-07    66s
 125   1.11755342e+03  1.11758443e+03  2.29e-04 1.31e-06  9.74e-07    67s
 126   1.11755319e+03  1.11758442e+03  2.28e-04 1.31e-06  9.74e-07    68s

Barrier performed 126 iterations in 67.74 seconds (69.53 work units)
Sub-optimal termination - objective 1.11756986e+03

/user/bnickson/GitHub/LUVex_TelAps/aplc_optimization/surveys/usort_offaxis_survey_N0128_telserv3/FPM38_IWA37/drivers/01_USORT_N128_FPM380M0150_IWA0370_OWA01400_C10_BW15_Nlam5_LS_IDc_ID0_OD_OD0_ls_90_ovsamp16_.py:102: DeprecationWarning: circular_aperture is deprecated. Its new name is make_circular_aperture.
  dark_zone_mask = circular_aperture(img_owa * 2)(focal_grid) - circular_aperture(img_iwa * 2)(focal_grid)
/user/bnickson/GitHub/LUVex_TelAps/aplc_optimization/surveys/usort_offaxis_survey_N0128_telserv3/FPM38_IWA37/drivers/01_USORT_N128_FPM380M0150_IWA0370_OWA01400_C10_BW15_Nlam5_LS_IDc_ID0_OD_OD0_ls_90_ovsamp16_.py:110: DeprecationWarning: circular_aperture is deprecated. Its new name is make_circular_aperture.
  focal_plane_mask = 1 - evaluate_supersampled(circular_aperture(2 * fpm_radius), focal_mask_grid, 8)
WARNING: VerifyWarning: Keyword name 'LS_ALIGN_TOl' is greater than 8 characters or contains characters not allowed by the FITS standard; a HIERARCH card will be created. [astropy.io.fits.card]
WARNING: VerifyWarning: Keyword name 'LS_NUM_STOPS' is greater than 8 characters or contains characters not allowed by the FITS standard; a HIERARCH card will be created. [astropy.io.fits.card]
WARNING: VerifyWarning: Keyword name 'PROG_START' is greater than 8 characters or contains characters not allowed by the FITS standard; a HIERARCH card will be created. [astropy.io.fits.card]
WARNING: VerifyWarning: Keyword name 'PROG_EDGE' is greater than 8 characters or contains characters not allowed by the FITS standard; a HIERARCH card will be created. [astropy.io.fits.card]
WARNING: VerifyWarning: Keyword name 'THRPT_ITER' is greater than 8 characters or contains characters not allowed by the FITS standard; a HIERARCH card will be created. [astropy.io.fits.card]
WARNING: VerifyWarning: Keyword name 'THRPT_ESTIM' is greater than 8 characters or contains characters not allowed by the FITS standard; a HIERARCH card will be created. [astropy.io.fits.card]
WARNING: VerifyWarning: Keyword name 'MAX_THRPT' is greater than 8 characters or contains characters not allowed by the FITS standard; a HIERARCH card will be created. [astropy.io.fits.card]
WARNING: VerifyWarning: Keyword name 'SLV_THRDS' is greater than 8 characters or contains characters not allowed by the FITS standard; a HIERARCH card will be created. [astropy.io.fits.card]
WARNING: VerifyWarning: Keyword name 'SLV_XOVER' is greater than 8 characters or contains characters not allowed by the FITS standard; a HIERARCH card will be created. [astropy.io.fits.card]
Optimization finished!
